Timesteps: 1
s UNSATISFIABLE
real 0.10
user 0.00
sys 0.00
Timesteps: 2
s UNSATISFIABLE
real 0.07
user 0.02
sys 0.00
Timesteps: 3
s UNSATISFIABLE
real 0.10
user 0.04
sys 0.00
Timesteps: 4
s UNSATISFIABLE
real 0.18
user 0.11
sys 0.00
Timesteps: 5
s UNSATISFIABLE
real 0.27
user 0.16
sys 0.00
Timesteps: 6
s UNSATISFIABLE
real 0.49
user 0.40
sys 0.00
Timesteps: 7
s UNSATISFIABLE
real 1.26
user 1.17
sys 0.01
Timesteps: 8
s UNSATISFIABLE
real 1.97
user 1.86
sys 0.01
Timesteps: 9
s UNSATISFIABLE
real 7.22
user 7.06
sys 0.01
Timesteps: 10
s UNSATISFIABLE
real 7.76
user 7.60
sys 0.01
Timesteps: 11
s UNSATISFIABLE
real 8.52
user 8.32
sys 0.02
Timesteps: 12
s UNSATISFIABLE
real 8.43
user 8.24
sys 0.02
Timesteps: 13
s UNSATISFIABLE
real 9.12
user 8.89
sys 0.03
Timesteps: 14
s UNSATISFIABLE
real 9.81
user 9.58
sys 0.03
Timesteps: 15
s UNSATISFIABLE
real 11.75
user 11.45
sys 0.03
Timesteps: 16
s UNSATISFIABLE
real 11.23
user 10.96
sys 0.04
Timesteps: 17
s UNSATISFIABLE
real 16.36
user 16.06
sys 0.05
Timesteps: 18
s UNSATISFIABLE
real 17.69
user 17.37
sys 0.05
Timesteps: 19
s UNSATISFIABLE
real 18.73
user 18.38
sys 0.06
Timesteps: 20
s UNSATISFIABLE
real 20.79
user 20.42
sys 0.06
Timesteps: 21
s UNSATISFIABLE
real 22.48
user 22.09
sys 0.06
Timesteps: 22
s UNSATISFIABLE
real 21.14
user 20.75
sys 0.06
Timesteps: 23
s UNSATISFIABLE
real 33.24
user 32.76
sys 0.07
Timesteps: 24
s UNSATISFIABLE
real 34.63
user 34.15
sys 0.08
Timesteps: 25
s UNSATISFIABLE
real 38.61
user 37.98
sys 0.09
Timesteps: 26
s UNSATISFIABLE
real 41.73
user 41.17
sys 0.11
Timesteps: 27
s UNSATISFIABLE
real 63.75
user 63.07
sys 0.13
Timesteps: 28
s UNSATISFIABLE
real 90.87
user 90.08
sys 0.13
Timesteps: 29
s UNSATISFIABLE
real 82.53
user 81.73
sys 0.15
Timesteps: 30
s UNSATISFIABLE
real 112.84
user 111.89
sys 0.19
Timesteps: 31
s UNSATISFIABLE
real 158.45
user 157.31
sys 0.21
Timesteps: 32
s UNSATISFIABLE
real 204.18
user 202.75
sys 0.30
Timesteps: 33
s UNSATISFIABLE
real 271.23
user 269.50
sys 0.37
Timesteps: 34
s UNSATISFIABLE
real 359.59
user 357.50
sys 0.41
Timesteps: 35
s UNSATISFIABLE
real 531.07
user 527.50
sys 0.64
Timesteps: 36
s UNSATISFIABLE
real 568.77
user 565.06
sys 0.67
Timesteps: 37
s UNSATISFIABLE
real 653.04
user 648.90
sys 0.74
Timesteps: 38
